(set-logic HORN)
(declare-fun invariant (Real Real Real Real Real Real Real Real Real Real Real Real Real Real Real Real Real Real Real Real Real Real Real Real Real Real Real Real Real Real Real Real Real Real Real Real Real Real Real Real Real Real Real Real Real Real Real Real Real Real Real Real Real Real Real Real Real Real Real Real Real Real Real Real Bool Bool Bool Bool Bool Bool Bool Bool Bool Bool Bool Bool Real Real Real Real Real Real Real) Bool)

;; Initial state
(assert
  (forall ((state.cx!0!0 Real) (state.cx!0!1 Real) (state.cx!0!2 Real) (state.cx!0!3 Real) (state.cx!0!4 Real) (state.cx!0!5 Real) (state.cx!0!6 Real) (state.cx!0!7 Real) (state.cx!1!0 Real) (state.cx!1!1 Real) (state.cx!1!2 Real) (state.cx!1!3 Real) (state.cx!1!4 Real) (state.cx!1!5 Real) (state.cx!1!6 Real) (state.cx!1!7 Real) (state.cx!2!0 Real) (state.cx!2!1 Real) (state.cx!2!2 Real) (state.cx!2!3 Real) (state.cx!2!4 Real) (state.cx!2!5 Real) (state.cx!2!6 Real) (state.cx!2!7 Real) (state.cx!3!0 Real) (state.cx!3!1 Real) (state.cx!3!2 Real) (state.cx!3!3 Real) (state.cx!3!4 Real) (state.cx!3!5 Real) (state.cx!3!6 Real) (state.cx!3!7 Real) (state.cy!0!0 Real) (state.cy!0!1 Real) (state.cy!0!2 Real) (state.cy!0!3 Real) (state.cy!0!4 Real) (state.cy!0!5 Real) (state.cy!0!6 Real) (state.cy!0!7 Real) (state.cy!1!0 Real) (state.cy!1!1 Real) (state.cy!1!2 Real) (state.cy!1!3 Real) (state.cy!1!4 Real) (state.cy!1!5 Real) (state.cy!1!6 Real) (state.cy!1!7 Real) (state.cy!2!0 Real) (state.cy!2!1 Real) (state.cy!2!2 Real) (state.cy!2!3 Real) (state.cy!2!4 Real) (state.cy!2!5 Real) (state.cy!2!6 Real) (state.cy!2!7 Real) (state.cy!3!0 Real) (state.cy!3!1 Real) (state.cy!3!2 Real) (state.cy!3!3 Real) (state.cy!3!4 Real) (state.cy!3!5 Real) (state.cy!3!6 Real) (state.cy!3!7 Real) (state.good_p!0 Bool) (state.good_p!1 Bool) (state.good_p!2 Bool) (state.good_p!3 Bool) (state.good_r!0 Bool) (state.good_r!1 Bool) (state.good_r!2 Bool) (state.good_r!3 Bool) (state.good_r!4 Bool) (state.good_r!5 Bool) (state.good_r!6 Bool) (state.good_r!7 Bool) (state.v!0 Real) (state.v!1 Real) (state.v!2 Real) (state.v!3 Real) (state.round Real) (state.source Real) (state.val Real))
    (=> (let ((l0 (= |state.round| 0))) (let ((l1 (= |state.cx!0!0| 0))) (let ((l2 (= |state.cx!0!1| 0))) (let ((l3 (= |state.cx!0!2| 0))) (let ((l4 (= |state.cx!0!3| 0))) (let ((l5 (= |state.cx!0!4| 0))) (let ((l6 (= |state.cx!0!5| 0))) (let ((l7 (= |state.cx!0!6| 0))) (let ((l8 (= |state.cx!0!7| 0))) (let ((l9 (= |state.cx!1!0| 0))) (let ((l10 (= |state.cx!1!1| 0))) (let ((l11 (= |state.cx!1!2| 0))) (let ((l12 (= |state.cx!1!3| 0))) (let ((l13 (= |state.cx!1!4| 0))) (let ((l14 (= |state.cx!1!5| 0))) (let ((l15 (= |state.cx!1!6| 0))) (let ((l16 (= |state.cx!1!7| 0))) (let ((l17 (= |state.cx!2!0| 0))) (let ((l18 (= |state.cx!2!1| 0))) (let ((l19 (= |state.cx!2!2| 0))) (let ((l20 (= |state.cx!2!3| 0))) (let ((l21 (= |state.cx!2!4| 0))) (let ((l22 (= |state.cx!2!5| 0))) (let ((l23 (= |state.cx!2!6| 0))) (let ((l24 (= |state.cx!2!7| 0))) (let ((l25 (= |state.cx!3!0| 0))) (let ((l26 (= |state.cx!3!1| 0))) (let ((l27 (= |state.cx!3!2| 0))) (let ((l28 (= |state.cx!3!3| 0))) (let ((l29 (= |state.cx!3!4| 0))) (let ((l30 (= |state.cx!3!5| 0))) (let ((l31 (= |state.cx!3!6| 0))) (let ((l32 (= |state.cx!3!7| 0))) (let ((l33 (= |state.cy!0!0| 0))) (let ((l34 (= |state.cy!0!1| 0))) (let ((l35 (= |state.cy!0!2| 0))) (let ((l36 (= |state.cy!0!3| 0))) (let ((l37 (= |state.cy!0!4| 0))) (let ((l38 (= |state.cy!0!5| 0))) (let ((l39 (= |state.cy!0!6| 0))) (let ((l40 (= |state.cy!0!7| 0))) (let ((l41 (= |state.cy!1!0| 0))) (let ((l42 (= |state.cy!1!1| 0))) (let ((l43 (= |state.cy!1!2| 0))) (let ((l44 (= |state.cy!1!3| 0))) (let ((l45 (= |state.cy!1!4| 0))) (let ((l46 (= |state.cy!1!5| 0))) (let ((l47 (= |state.cy!1!6| 0))) (let ((l48 (= |state.cy!1!7| 0))) (let ((l49 (= |state.cy!2!0| 0))) (let ((l50 (= |state.cy!2!1| 0))) (let ((l51 (= |state.cy!2!2| 0))) (let ((l52 (= |state.cy!2!3| 0))) (let ((l53 (= |state.cy!2!4| 0))) (let ((l54 (= |state.cy!2!5| 0))) (let ((l55 (= |state.cy!2!6| 0))) (let ((l56 (= |state.cy!2!7| 0))) (let ((l57 (= |state.cy!3!0| 0))) (let ((l58 (= |state.cy!3!1| 0))) (let ((l59 (= |state.cy!3!2| 0))) (let ((l60 (= |state.cy!3!3| 0))) (let ((l61 (= |state.cy!3!4| 0))) (let ((l62 (= |state.cy!3!5| 0))) (let ((l63 (= |state.cy!3!6| 0))) (let ((l64 (= |state.cy!3!7| 0))) (let ((l65 (= |state.source| 1))) (let ((l66 (= |state.source| 2))) (let ((l67 (= |state.source| 3))) (let ((l68 (= |state.source| 4))) (let ((l69 (or l65 l66 l67 l68))) (let ((l70 (= |state.val| 0))) (let ((l71 (not l70))) (let ((l72 (and |state.good_p!0| |state.good_p!1| |state.good_p!2| |state.good_p!3|))) (let ((l73 (not |state.good_r!0|))) (let ((l74 (and l73 |state.good_r!1| |state.good_r!2| |state.good_r!3| |state.good_r!4| |state.good_r!5| |state.good_r!6| |state.good_r!7|))) (let ((l75 (not |state.good_r!1|))) (let ((l76 (and l75 |state.good_r!0| |state.good_r!2| |state.good_r!3| |state.good_r!4| |state.good_r!5| |state.good_r!6| |state.good_r!7|))) (let ((l77 (not |state.good_r!2|))) (let ((l78 (and l77 |state.good_r!0| |state.good_r!1| |state.good_r!3| |state.good_r!4| |state.good_r!5| |state.good_r!6| |state.good_r!7|))) (let ((l79 (not |state.good_r!3|))) (let ((l80 (and l79 |state.good_r!0| |state.good_r!1| |state.good_r!2| |state.good_r!4| |state.good_r!5| |state.good_r!6| |state.good_r!7|))) (let ((l81 (not |state.good_r!4|))) (let ((l82 (and l81 |state.good_r!0| |state.good_r!1| |state.good_r!2| |state.good_r!3| |state.good_r!5| |state.good_r!6| |state.good_r!7|))) (let ((l83 (not |state.good_r!5|))) (let ((l84 (and l83 |state.good_r!0| |state.good_r!1| |state.good_r!2| |state.good_r!3| |state.good_r!4| |state.good_r!6| |state.good_r!7|))) (let ((l85 (not |state.good_r!6|))) (let ((l86 (and l85 |state.good_r!0| |state.good_r!1| |state.good_r!2| |state.good_r!3| |state.good_r!4| |state.good_r!5| |state.good_r!7|))) (let ((l87 (not |state.good_r!7|))) (let ((l88 (and l87 |state.good_r!0| |state.good_r!1| |state.good_r!2| |state.good_r!3| |state.good_r!4| |state.good_r!5| |state.good_r!6|))) (let ((l89 (or l74 l76 l78 l80 l82 l84 l86 l88))) (let ((l90 (and l0 l1 l2 l3 l4 l5 l6 l7 l8 l9 l10 l11 l12 l13 l14 l15 l16 l17 l18 l19 l20 l21 l22 l23 l24 l25 l26 l27 l28 l29 l30 l31 l32 l33 l34 l35 l36 l37 l38 l39 l40 l41 l42 l43 l44 l45 l46 l47 l48 l49 l50 l51 l52 l53 l54 l55 l56 l57 l58 l59 l60 l61 l62 l63 l64 l69 l71 l72 l89))) l90)))))))))))))))))))))))))))))))))))))))))))))))))))))))))))))))))))))))))))))))))))))))))))
        (invariant state.cx!0!0 state.cx!0!1 state.cx!0!2 state.cx!0!3 state.cx!0!4 state.cx!0!5 state.cx!0!6 state.cx!0!7 state.cx!1!0 state.cx!1!1 state.cx!1!2 state.cx!1!3 state.cx!1!4 state.cx!1!5 state.cx!1!6 state.cx!1!7 state.cx!2!0 state.cx!2!1 state.cx!2!2 state.cx!2!3 state.cx!2!4 state.cx!2!5 state.cx!2!6 state.cx!2!7 state.cx!3!0 state.cx!3!1 state.cx!3!2 state.cx!3!3 state.cx!3!4 state.cx!3!5 state.cx!3!6 state.cx!3!7 state.cy!0!0 state.cy!0!1 state.cy!0!2 state.cy!0!3 state.cy!0!4 state.cy!0!5 state.cy!0!6 state.cy!0!7 state.cy!1!0 state.cy!1!1 state.cy!1!2 state.cy!1!3 state.cy!1!4 state.cy!1!5 state.cy!1!6 state.cy!1!7 state.cy!2!0 state.cy!2!1 state.cy!2!2 state.cy!2!3 state.cy!2!4 state.cy!2!5 state.cy!2!6 state.cy!2!7 state.cy!3!0 state.cy!3!1 state.cy!3!2 state.cy!3!3 state.cy!3!4 state.cy!3!5 state.cy!3!6 state.cy!3!7 state.good_p!0 state.good_p!1 state.good_p!2 state.good_p!3 state.good_r!0 state.good_r!1 state.good_r!2 state.good_r!3 state.good_r!4 state.good_r!5 state.good_r!6 state.good_r!7 state.v!0 state.v!1 state.v!2 state.v!3 state.round state.source state.val))
  )
)

;; Transition relation
(assert
  (forall ((state.cx!0!0 Real) (next.cx!0!0 Real) (state.cx!0!1 Real) (next.cx!0!1 Real) (state.cx!0!2 Real) (next.cx!0!2 Real) (state.cx!0!3 Real) (next.cx!0!3 Real) (state.cx!0!4 Real) (next.cx!0!4 Real) (state.cx!0!5 Real) (next.cx!0!5 Real) (state.cx!0!6 Real) (next.cx!0!6 Real) (state.cx!0!7 Real) (next.cx!0!7 Real) (state.cx!1!0 Real) (next.cx!1!0 Real) (state.cx!1!1 Real) (next.cx!1!1 Real) (state.cx!1!2 Real) (next.cx!1!2 Real) (state.cx!1!3 Real) (next.cx!1!3 Real) (state.cx!1!4 Real) (next.cx!1!4 Real) (state.cx!1!5 Real) (next.cx!1!5 Real) (state.cx!1!6 Real) (next.cx!1!6 Real) (state.cx!1!7 Real) (next.cx!1!7 Real) (state.cx!2!0 Real) (next.cx!2!0 Real) (state.cx!2!1 Real) (next.cx!2!1 Real) (state.cx!2!2 Real) (next.cx!2!2 Real) (state.cx!2!3 Real) (next.cx!2!3 Real) (state.cx!2!4 Real) (next.cx!2!4 Real) (state.cx!2!5 Real) (next.cx!2!5 Real) (state.cx!2!6 Real) (next.cx!2!6 Real) (state.cx!2!7 Real) (next.cx!2!7 Real) (state.cx!3!0 Real) (next.cx!3!0 Real) (state.cx!3!1 Real) (next.cx!3!1 Real) (state.cx!3!2 Real) (next.cx!3!2 Real) (state.cx!3!3 Real) (next.cx!3!3 Real) (state.cx!3!4 Real) (next.cx!3!4 Real) (state.cx!3!5 Real) (next.cx!3!5 Real) (state.cx!3!6 Real) (next.cx!3!6 Real) (state.cx!3!7 Real) (next.cx!3!7 Real) (state.cy!0!0 Real) (next.cy!0!0 Real) (state.cy!0!1 Real) (next.cy!0!1 Real) (state.cy!0!2 Real) (next.cy!0!2 Real) (state.cy!0!3 Real) (next.cy!0!3 Real) (state.cy!0!4 Real) (next.cy!0!4 Real) (state.cy!0!5 Real) (next.cy!0!5 Real) (state.cy!0!6 Real) (next.cy!0!6 Real) (state.cy!0!7 Real) (next.cy!0!7 Real) (state.cy!1!0 Real) (next.cy!1!0 Real) (state.cy!1!1 Real) (next.cy!1!1 Real) (state.cy!1!2 Real) (next.cy!1!2 Real) (state.cy!1!3 Real) (next.cy!1!3 Real) (state.cy!1!4 Real) (next.cy!1!4 Real) (state.cy!1!5 Real) (next.cy!1!5 Real) (state.cy!1!6 Real) (next.cy!1!6 Real) (state.cy!1!7 Real) (next.cy!1!7 Real) (state.cy!2!0 Real) (next.cy!2!0 Real) (state.cy!2!1 Real) (next.cy!2!1 Real) (state.cy!2!2 Real) (next.cy!2!2 Real) (state.cy!2!3 Real) (next.cy!2!3 Real) (state.cy!2!4 Real) (next.cy!2!4 Real) (state.cy!2!5 Real) (next.cy!2!5 Real) (state.cy!2!6 Real) (next.cy!2!6 Real) (state.cy!2!7 Real) (next.cy!2!7 Real) (state.cy!3!0 Real) (next.cy!3!0 Real) (state.cy!3!1 Real) (next.cy!3!1 Real) (state.cy!3!2 Real) (next.cy!3!2 Real) (state.cy!3!3 Real) (next.cy!3!3 Real) (state.cy!3!4 Real) (next.cy!3!4 Real) (state.cy!3!5 Real) (next.cy!3!5 Real) (state.cy!3!6 Real) (next.cy!3!6 Real) (state.cy!3!7 Real) (next.cy!3!7 Real) (state.good_p!0 Bool) (next.good_p!0 Bool) (state.good_p!1 Bool) (next.good_p!1 Bool) (state.good_p!2 Bool) (next.good_p!2 Bool) (state.good_p!3 Bool) (next.good_p!3 Bool) (state.good_r!0 Bool) (next.good_r!0 Bool) (state.good_r!1 Bool) (next.good_r!1 Bool) (state.good_r!2 Bool) (next.good_r!2 Bool) (state.good_r!3 Bool) (next.good_r!3 Bool) (state.good_r!4 Bool) (next.good_r!4 Bool) (state.good_r!5 Bool) (next.good_r!5 Bool) (state.good_r!6 Bool) (next.good_r!6 Bool) (state.good_r!7 Bool) (next.good_r!7 Bool) (state.v!0 Real) (next.v!0 Real) (state.v!1 Real) (next.v!1 Real) (state.v!2 Real) (next.v!2 Real) (state.v!3 Real) (next.v!3 Real) (state.round Real) (next.round Real) (state.source Real) (next.source Real) (state.val Real) (next.val Real))
    (=> (and (invariant state.cx!0!0 state.cx!0!1 state.cx!0!2 state.cx!0!3 state.cx!0!4 state.cx!0!5 state.cx!0!6 state.cx!0!7 state.cx!1!0 state.cx!1!1 state.cx!1!2 state.cx!1!3 state.cx!1!4 state.cx!1!5 state.cx!1!6 state.cx!1!7 state.cx!2!0 state.cx!2!1 state.cx!2!2 state.cx!2!3 state.cx!2!4 state.cx!2!5 state.cx!2!6 state.cx!2!7 state.cx!3!0 state.cx!3!1 state.cx!3!2 state.cx!3!3 state.cx!3!4 state.cx!3!5 state.cx!3!6 state.cx!3!7 state.cy!0!0 state.cy!0!1 state.cy!0!2 state.cy!0!3 state.cy!0!4 state.cy!0!5 state.cy!0!6 state.cy!0!7 state.cy!1!0 state.cy!1!1 state.cy!1!2 state.cy!1!3 state.cy!1!4 state.cy!1!5 state.cy!1!6 state.cy!1!7 state.cy!2!0 state.cy!2!1 state.cy!2!2 state.cy!2!3 state.cy!2!4 state.cy!2!5 state.cy!2!6 state.cy!2!7 state.cy!3!0 state.cy!3!1 state.cy!3!2 state.cy!3!3 state.cy!3!4 state.cy!3!5 state.cy!3!6 state.cy!3!7 state.good_p!0 state.good_p!1 state.good_p!2 state.good_p!3 state.good_r!0 state.good_r!1 state.good_r!2 state.good_r!3 state.good_r!4 state.good_r!5 state.good_r!6 state.good_r!7 state.v!0 state.v!1 state.v!2 state.v!3 state.round state.source state.val)
             (let ((l0 (= |next.source| |state.source|))) (let ((l1 (= |next.val| |state.val|))) (let ((l2 (= |state.round| 0))) (let ((l3 (not |state.good_p!0|))) (let ((l4 (= 1 |state.source|))) (let ((l5 (not l4))) (let ((l6 (= |next.cx!0!0| |state.val|))) (let ((l7 (= |next.cx!0!1| |state.val|))) (let ((l8 (= |next.cx!0!2| |state.val|))) (let ((l9 (= |next.cx!0!3| |state.val|))) (let ((l10 (= |next.cx!0!4| |state.val|))) (let ((l11 (= |next.cx!0!5| |state.val|))) (let ((l12 (= |next.cx!0!6| |state.val|))) (let ((l13 (= |next.cx!0!7| |state.val|))) (let ((l14 (and l6 l7 l8 l9 l10 l11 l12 l13))) (let ((l15 (or l3 l5 l14))) (let ((l16 (not |state.good_p!1|))) (let ((l17 (= 2 |state.source|))) (let ((l18 (not l17))) (let ((l19 (= |next.cx!1!0| |state.val|))) (let ((l20 (= |next.cx!1!1| |state.val|))) (let ((l21 (= |next.cx!1!2| |state.val|))) (let ((l22 (= |next.cx!1!3| |state.val|))) (let ((l23 (= |next.cx!1!4| |state.val|))) (let ((l24 (= |next.cx!1!5| |state.val|))) (let ((l25 (= |next.cx!1!6| |state.val|))) (let ((l26 (= |next.cx!1!7| |state.val|))) (let ((l27 (and l19 l20 l21 l22 l23 l24 l25 l26))) (let ((l28 (or l16 l18 l27))) (let ((l29 (not |state.good_p!2|))) (let ((l30 (= 3 |state.source|))) (let ((l31 (not l30))) (let ((l32 (= |next.cx!2!0| |state.val|))) (let ((l33 (= |next.cx!2!1| |state.val|))) (let ((l34 (= |next.cx!2!2| |state.val|))) (let ((l35 (= |next.cx!2!3| |state.val|))) (let ((l36 (= |next.cx!2!4| |state.val|))) (let ((l37 (= |next.cx!2!5| |state.val|))) (let ((l38 (= |next.cx!2!6| |state.val|))) (let ((l39 (= |next.cx!2!7| |state.val|))) (let ((l40 (and l32 l33 l34 l35 l36 l37 l38 l39))) (let ((l41 (or l29 l31 l40))) (let ((l42 (not |state.good_p!3|))) (let ((l43 (= 4 |state.source|))) (let ((l44 (not l43))) (let ((l45 (= |next.cx!3!0| |state.val|))) (let ((l46 (= |next.cx!3!1| |state.val|))) (let ((l47 (= |next.cx!3!2| |state.val|))) (let ((l48 (= |next.cx!3!3| |state.val|))) (let ((l49 (= |next.cx!3!4| |state.val|))) (let ((l50 (= |next.cx!3!5| |state.val|))) (let ((l51 (= |next.cx!3!6| |state.val|))) (let ((l52 (= |next.cx!3!7| |state.val|))) (let ((l53 (and l45 l46 l47 l48 l49 l50 l51 l52))) (let ((l54 (or l42 l44 l53))) (let ((l55 (= |next.cx!0!0| 0))) (let ((l56 (= |next.cx!0!1| 0))) (let ((l57 (= |next.cx!0!2| 0))) (let ((l58 (= |next.cx!0!3| 0))) (let ((l59 (= |next.cx!0!4| 0))) (let ((l60 (= |next.cx!0!5| 0))) (let ((l61 (= |next.cx!0!6| 0))) (let ((l62 (= |next.cx!0!7| 0))) (let ((l63 (and l55 l56 l57 l58 l59 l60 l61 l62))) (let ((l64 (or l3 l4 l63))) (let ((l65 (= |next.cx!1!0| 0))) (let ((l66 (= |next.cx!1!1| 0))) (let ((l67 (= |next.cx!1!2| 0))) (let ((l68 (= |next.cx!1!3| 0))) (let ((l69 (= |next.cx!1!4| 0))) (let ((l70 (= |next.cx!1!5| 0))) (let ((l71 (= |next.cx!1!6| 0))) (let ((l72 (= |next.cx!1!7| 0))) (let ((l73 (and l65 l66 l67 l68 l69 l70 l71 l72))) (let ((l74 (or l16 l17 l73))) (let ((l75 (= |next.cx!2!0| 0))) (let ((l76 (= |next.cx!2!1| 0))) (let ((l77 (= |next.cx!2!2| 0))) (let ((l78 (= |next.cx!2!3| 0))) (let ((l79 (= |next.cx!2!4| 0))) (let ((l80 (= |next.cx!2!5| 0))) (let ((l81 (= |next.cx!2!6| 0))) (let ((l82 (= |next.cx!2!7| 0))) (let ((l83 (and l75 l76 l77 l78 l79 l80 l81 l82))) (let ((l84 (or l29 l30 l83))) (let ((l85 (= |next.cx!3!0| 0))) (let ((l86 (= |next.cx!3!1| 0))) (let ((l87 (= |next.cx!3!2| 0))) (let ((l88 (= |next.cx!3!3| 0))) (let ((l89 (= |next.cx!3!4| 0))) (let ((l90 (= |next.cx!3!5| 0))) (let ((l91 (= |next.cx!3!6| 0))) (let ((l92 (= |next.cx!3!7| 0))) (let ((l93 (and l85 l86 l87 l88 l89 l90 l91 l92))) (let ((l94 (or l42 l43 l93))) (let ((l95 (and l15 l28 l41 l54 l64 l74 l84 l94))) (let ((l96 (= |next.round| 1))) (let ((l97 (= |next.cy!0!0| |state.cy!0!0|))) (let ((l98 (= |next.cy!0!1| |state.cy!0!1|))) (let ((l99 (= |next.cy!0!2| |state.cy!0!2|))) (let ((l100 (= |next.cy!0!3| |state.cy!0!3|))) (let ((l101 (= |next.cy!0!4| |state.cy!0!4|))) (let ((l102 (= |next.cy!0!5| |state.cy!0!5|))) (let ((l103 (= |next.cy!0!6| |state.cy!0!6|))) (let ((l104 (= |next.cy!0!7| |state.cy!0!7|))) (let ((l105 (= |next.cy!1!0| |state.cy!1!0|))) (let ((l106 (= |next.cy!1!1| |state.cy!1!1|))) (let ((l107 (= |next.cy!1!2| |state.cy!1!2|))) (let ((l108 (= |next.cy!1!3| |state.cy!1!3|))) (let ((l109 (= |next.cy!1!4| |state.cy!1!4|))) (let ((l110 (= |next.cy!1!5| |state.cy!1!5|))) (let ((l111 (= |next.cy!1!6| |state.cy!1!6|))) (let ((l112 (= |next.cy!1!7| |state.cy!1!7|))) (let ((l113 (= |next.cy!2!0| |state.cy!2!0|))) (let ((l114 (= |next.cy!2!1| |state.cy!2!1|))) (let ((l115 (= |next.cy!2!2| |state.cy!2!2|))) (let ((l116 (= |next.cy!2!3| |state.cy!2!3|))) (let ((l117 (= |next.cy!2!4| |state.cy!2!4|))) (let ((l118 (= |next.cy!2!5| |state.cy!2!5|))) (let ((l119 (= |next.cy!2!6| |state.cy!2!6|))) (let ((l120 (= |next.cy!2!7| |state.cy!2!7|))) (let ((l121 (= |next.cy!3!0| |state.cy!3!0|))) (let ((l122 (= |next.cy!3!1| |state.cy!3!1|))) (let ((l123 (= |next.cy!3!2| |state.cy!3!2|))) (let ((l124 (= |next.cy!3!3| |state.cy!3!3|))) (let ((l125 (= |next.cy!3!4| |state.cy!3!4|))) (let ((l126 (= |next.cy!3!5| |state.cy!3!5|))) (let ((l127 (= |next.cy!3!6| |state.cy!3!6|))) (let ((l128 (= |next.cy!3!7| |state.cy!3!7|))) (let ((l129 (and l97 l98 l99 l100 l101 l102 l103 l104 l105 l106 l107 l108 l109 l110 l111 l112 l113 l114 l115 l116 l117 l118 l119 l120 l121 l122 l123 l124 l125 l126 l127 l128))) (let ((l130 (= |next.good_p!0| |state.good_p!0|))) (let ((l131 (= |next.good_p!1| |state.good_p!1|))) (let ((l132 (= |next.good_p!2| |state.good_p!2|))) (let ((l133 (= |next.good_p!3| |state.good_p!3|))) (let ((l134 (and l130 l131 l132 l133))) (let ((l135 (= |next.good_r!0| |state.good_r!0|))) (let ((l136 (= |next.good_r!1| |state.good_r!1|))) (let ((l137 (= |next.good_r!2| |state.good_r!2|))) (let ((l138 (= |next.good_r!3| |state.good_r!3|))) (let ((l139 (= |next.good_r!4| |state.good_r!4|))) (let ((l140 (= |next.good_r!5| |state.good_r!5|))) (let ((l141 (= |next.good_r!6| |state.good_r!6|))) (let ((l142 (= |next.good_r!7| |state.good_r!7|))) (let ((l143 (and l135 l136 l137 l138 l139 l140 l141 l142))) (let ((l144 (= |next.v!0| |state.v!0|))) (let ((l145 (= |next.v!1| |state.v!1|))) (let ((l146 (= |next.v!2| |state.v!2|))) (let ((l147 (= |next.v!3| |state.v!3|))) (let ((l148 (and l144 l145 l146 l147))) (let ((l149 (and l2 l95 l96 l129 l134 l143 l148))) (let ((l150 (= |state.round| 1))) (let ((l151 (not |state.good_r!0|))) (let ((l152 (= |state.source| 4))) (let ((l153 (= |state.source| 3))) (let ((l154 (= |state.source| 2))) (let ((l155 (ite l154 |state.cx!1!0| |state.cx!0!0|))) (let ((l156 (ite l153 |state.cx!2!0| l155))) (let ((l157 (ite l152 |state.cx!3!0| l156))) (let ((l158 (= |next.cy!0!0| l157))) (let ((l159 (or l151 l158))) (let ((l160 (= |next.cy!1!0| l157))) (let ((l161 (or l151 l160))) (let ((l162 (= |next.cy!2!0| l157))) (let ((l163 (or l151 l162))) (let ((l164 (= |next.cy!3!0| l157))) (let ((l165 (or l151 l164))) (let ((l166 (not |state.good_r!1|))) (let ((l167 (ite l154 |state.cx!1!1| |state.cx!0!1|))) (let ((l168 (ite l153 |state.cx!2!1| l167))) (let ((l169 (ite l152 |state.cx!3!1| l168))) (let ((l170 (= |next.cy!0!1| l169))) (let ((l171 (or l166 l170))) (let ((l172 (= |next.cy!1!1| l169))) (let ((l173 (or l166 l172))) (let ((l174 (= |next.cy!2!1| l169))) (let ((l175 (or l166 l174))) (let ((l176 (= |next.cy!3!1| l169))) (let ((l177 (or l166 l176))) (let ((l178 (not |state.good_r!2|))) (let ((l179 (ite l154 |state.cx!1!2| |state.cx!0!2|))) (let ((l180 (ite l153 |state.cx!2!2| l179))) (let ((l181 (ite l152 |state.cx!3!2| l180))) (let ((l182 (= |next.cy!0!2| l181))) (let ((l183 (or l178 l182))) (let ((l184 (= |next.cy!1!2| l181))) (let ((l185 (or l178 l184))) (let ((l186 (= |next.cy!2!2| l181))) (let ((l187 (or l178 l186))) (let ((l188 (= |next.cy!3!2| l181))) (let ((l189 (or l178 l188))) (let ((l190 (not |state.good_r!3|))) (let ((l191 (ite l154 |state.cx!1!3| |state.cx!0!3|))) (let ((l192 (ite l153 |state.cx!2!3| l191))) (let ((l193 (ite l152 |state.cx!3!3| l192))) (let ((l194 (= |next.cy!0!3| l193))) (let ((l195 (or l190 l194))) (let ((l196 (= |next.cy!1!3| l193))) (let ((l197 (or l190 l196))) (let ((l198 (= |next.cy!2!3| l193))) (let ((l199 (or l190 l198))) (let ((l200 (= |next.cy!3!3| l193))) (let ((l201 (or l190 l200))) (let ((l202 (not |state.good_r!4|))) (let ((l203 (ite l154 |state.cx!1!4| |state.cx!0!4|))) (let ((l204 (ite l153 |state.cx!2!4| l203))) (let ((l205 (ite l152 |state.cx!3!4| l204))) (let ((l206 (= |next.cy!0!4| l205))) (let ((l207 (or l202 l206))) (let ((l208 (= |next.cy!1!4| l205))) (let ((l209 (or l202 l208))) (let ((l210 (= |next.cy!2!4| l205))) (let ((l211 (or l202 l210))) (let ((l212 (= |next.cy!3!4| l205))) (let ((l213 (or l202 l212))) (let ((l214 (not |state.good_r!5|))) (let ((l215 (ite l154 |state.cx!1!5| |state.cx!0!5|))) (let ((l216 (ite l153 |state.cx!2!5| l215))) (let ((l217 (ite l152 |state.cx!3!5| l216))) (let ((l218 (= |next.cy!0!5| l217))) (let ((l219 (or l214 l218))) (let ((l220 (= |next.cy!1!5| l217))) (let ((l221 (or l214 l220))) (let ((l222 (= |next.cy!2!5| l217))) (let ((l223 (or l214 l222))) (let ((l224 (= |next.cy!3!5| l217))) (let ((l225 (or l214 l224))) (let ((l226 (not |state.good_r!6|))) (let ((l227 (ite l154 |state.cx!1!6| |state.cx!0!6|))) (let ((l228 (ite l153 |state.cx!2!6| l227))) (let ((l229 (ite l152 |state.cx!3!6| l228))) (let ((l230 (= |next.cy!0!6| l229))) (let ((l231 (or l226 l230))) (let ((l232 (= |next.cy!1!6| l229))) (let ((l233 (or l226 l232))) (let ((l234 (= |next.cy!2!6| l229))) (let ((l235 (or l226 l234))) (let ((l236 (= |next.cy!3!6| l229))) (let ((l237 (or l226 l236))) (let ((l238 (not |state.good_r!7|))) (let ((l239 (ite l154 |state.cx!1!7| |state.cx!0!7|))) (let ((l240 (ite l153 |state.cx!2!7| l239))) (let ((l241 (ite l152 |state.cx!3!7| l240))) (let ((l242 (= |next.cy!0!7| l241))) (let ((l243 (or l238 l242))) (let ((l244 (= |next.cy!1!7| l241))) (let ((l245 (or l238 l244))) (let ((l246 (= |next.cy!2!7| l241))) (let ((l247 (or l238 l246))) (let ((l248 (= |next.cy!3!7| l241))) (let ((l249 (or l238 l248))) (let ((l250 (and l159 l161 l163 l165 l171 l173 l175 l177 l183 l185 l187 l189 l195 l197 l199 l201 l207 l209 l211 l213 l219 l221 l223 l225 l231 l233 l235 l237 l243 l245 l247 l249))) (let ((l251 (= |next.round| 2))) (let ((l252 (= |next.cx!0!0| |state.cx!0!0|))) (let ((l253 (= |next.cx!0!1| |state.cx!0!1|))) (let ((l254 (= |next.cx!0!2| |state.cx!0!2|))) (let ((l255 (= |next.cx!0!3| |state.cx!0!3|))) (let ((l256 (= |next.cx!0!4| |state.cx!0!4|))) (let ((l257 (= |next.cx!0!5| |state.cx!0!5|))) (let ((l258 (= |next.cx!0!6| |state.cx!0!6|))) (let ((l259 (= |next.cx!0!7| |state.cx!0!7|))) (let ((l260 (= |next.cx!1!0| |state.cx!1!0|))) (let ((l261 (= |next.cx!1!1| |state.cx!1!1|))) (let ((l262 (= |next.cx!1!2| |state.cx!1!2|))) (let ((l263 (= |next.cx!1!3| |state.cx!1!3|))) (let ((l264 (= |next.cx!1!4| |state.cx!1!4|))) (let ((l265 (= |next.cx!1!5| |state.cx!1!5|))) (let ((l266 (= |next.cx!1!6| |state.cx!1!6|))) (let ((l267 (= |next.cx!1!7| |state.cx!1!7|))) (let ((l268 (= |next.cx!2!0| |state.cx!2!0|))) (let ((l269 (= |next.cx!2!1| |state.cx!2!1|))) (let ((l270 (= |next.cx!2!2| |state.cx!2!2|))) (let ((l271 (= |next.cx!2!3| |state.cx!2!3|))) (let ((l272 (= |next.cx!2!4| |state.cx!2!4|))) (let ((l273 (= |next.cx!2!5| |state.cx!2!5|))) (let ((l274 (= |next.cx!2!6| |state.cx!2!6|))) (let ((l275 (= |next.cx!2!7| |state.cx!2!7|))) (let ((l276 (= |next.cx!3!0| |state.cx!3!0|))) (let ((l277 (= |next.cx!3!1| |state.cx!3!1|))) (let ((l278 (= |next.cx!3!2| |state.cx!3!2|))) (let ((l279 (= |next.cx!3!3| |state.cx!3!3|))) (let ((l280 (= |next.cx!3!4| |state.cx!3!4|))) (let ((l281 (= |next.cx!3!5| |state.cx!3!5|))) (let ((l282 (= |next.cx!3!6| |state.cx!3!6|))) (let ((l283 (= |next.cx!3!7| |state.cx!3!7|))) (let ((l284 (and l252 l253 l254 l255 l256 l257 l258 l259 l260 l261 l262 l263 l264 l265 l266 l267 l268 l269 l270 l271 l272 l273 l274 l275 l276 l277 l278 l279 l280 l281 l282 l283))) (let ((l285 (and l150 l250 l251 l284 l134 l143 l148))) (let ((l286 (= |state.round| 2))) (let ((l287 (= |state.cy!0!6| |state.cy!0!7|))) (let ((l288 (ite l287 2 0))) (let ((l289 (= l288 0))) (let ((l290 (= |state.cy!0!5| |state.cy!0!7|))) (let ((l291 (+ l288 1))) (let ((l292 (- l288 1))) (let ((l293 (ite l290 l291 l292))) (let ((l294 (ite l289 1 l293))) (let ((l295 (= l294 0))) (let ((l296 (ite l289 |state.cy!0!5| |state.cy!0!7|))) (let ((l297 (= |state.cy!0!4| l296))) (let ((l298 (+ l294 1))) (let ((l299 (- l294 1))) (let ((l300 (ite l297 l298 l299))) (let ((l301 (ite l295 1 l300))) (let ((l302 (= l301 0))) (let ((l303 (ite l295 |state.cy!0!4| l296))) (let ((l304 (= |state.cy!0!3| l303))) (let ((l305 (+ l301 1))) (let ((l306 (- l301 1))) (let ((l307 (ite l304 l305 l306))) (let ((l308 (ite l302 1 l307))) (let ((l309 (= l308 0))) (let ((l310 (ite l302 |state.cy!0!3| l303))) (let ((l311 (= |state.cy!0!2| l310))) (let ((l312 (+ l308 1))) (let ((l313 (- l308 1))) (let ((l314 (ite l311 l312 l313))) (let ((l315 (ite l309 1 l314))) (let ((l316 (= l315 0))) (let ((l317 (ite l309 |state.cy!0!2| l310))) (let ((l318 (= |state.cy!0!1| l317))) (let ((l319 (+ l315 1))) (let ((l320 (- l315 1))) (let ((l321 (ite l318 l319 l320))) (let ((l322 (ite l316 1 l321))) (let ((l323 (= l322 0))) (let ((l324 (ite l316 |state.cy!0!1| l317))) (let ((l325 (ite l323 |state.cy!0!0| l324))) (let ((l326 (= |state.cy!0!7| l325))) (let ((l327 (ite l326 4 5))) (let ((l328 (= l327 0))) (let ((l329 (= |state.cy!0!6| l325))) (let ((l330 (- l327 1))) (let ((l331 (ite l329 l330 l327))) (let ((l332 (= l331 0))) (let ((l333 (= |state.cy!0!5| l325))) (let ((l334 (- l331 1))) (let ((l335 (ite l333 l334 l331))) (let ((l336 (= l335 0))) (let ((l337 (= |state.cy!0!4| l325))) (let ((l338 (- l335 1))) (let ((l339 (ite l337 l338 l335))) (let ((l340 (= l339 0))) (let ((l341 (= |state.cy!0!3| l325))) (let ((l342 (- l339 1))) (let ((l343 (ite l341 l342 l339))) (let ((l344 (= l343 0))) (let ((l345 (= |state.cy!0!2| l325))) (let ((l346 (- l343 1))) (let ((l347 (ite l345 l346 l343))) (let ((l348 (= l347 0))) (let ((l349 (= |state.cy!0!1| l325))) (let ((l350 (- l347 1))) (let ((l351 (ite l349 l350 l347))) (let ((l352 (= l351 0))) (let ((l353 (= |state.cy!0!0| l325))) (let ((l354 (- l351 1))) (let ((l355 (ite l353 l354 l351))) (let ((l356 (= l355 0))) (let ((l357 (or l328 l332 l336 l340 l344 l348 l352 l356))) (let ((l358 (ite l357 l325 0))) (let ((l359 (= |next.v!0| l358))) (let ((l360 (or l3 l359))) (let ((l361 (= |state.cy!1!6| |state.cy!1!7|))) (let ((l362 (ite l361 2 0))) (let ((l363 (= l362 0))) (let ((l364 (= |state.cy!1!5| |state.cy!1!7|))) (let ((l365 (+ l362 1))) (let ((l366 (- l362 1))) (let ((l367 (ite l364 l365 l366))) (let ((l368 (ite l363 1 l367))) (let ((l369 (= l368 0))) (let ((l370 (ite l363 |state.cy!1!5| |state.cy!1!7|))) (let ((l371 (= |state.cy!1!4| l370))) (let ((l372 (+ l368 1))) (let ((l373 (- l368 1))) (let ((l374 (ite l371 l372 l373))) (let ((l375 (ite l369 1 l374))) (let ((l376 (= l375 0))) (let ((l377 (ite l369 |state.cy!1!4| l370))) (let ((l378 (= |state.cy!1!3| l377))) (let ((l379 (+ l375 1))) (let ((l380 (- l375 1))) (let ((l381 (ite l378 l379 l380))) (let ((l382 (ite l376 1 l381))) (let ((l383 (= l382 0))) (let ((l384 (ite l376 |state.cy!1!3| l377))) (let ((l385 (= |state.cy!1!2| l384))) (let ((l386 (+ l382 1))) (let ((l387 (- l382 1))) (let ((l388 (ite l385 l386 l387))) (let ((l389 (ite l383 1 l388))) (let ((l390 (= l389 0))) (let ((l391 (ite l383 |state.cy!1!2| l384))) (let ((l392 (= |state.cy!1!1| l391))) (let ((l393 (+ l389 1))) (let ((l394 (- l389 1))) (let ((l395 (ite l392 l393 l394))) (let ((l396 (ite l390 1 l395))) (let ((l397 (= l396 0))) (let ((l398 (ite l390 |state.cy!1!1| l391))) (let ((l399 (ite l397 |state.cy!1!0| l398))) (let ((l400 (= |state.cy!1!7| l399))) (let ((l401 (ite l400 4 5))) (let ((l402 (= l401 0))) (let ((l403 (= |state.cy!1!6| l399))) (let ((l404 (- l401 1))) (let ((l405 (ite l403 l404 l401))) (let ((l406 (= l405 0))) (let ((l407 (= |state.cy!1!5| l399))) (let ((l408 (- l405 1))) (let ((l409 (ite l407 l408 l405))) (let ((l410 (= l409 0))) (let ((l411 (= |state.cy!1!4| l399))) (let ((l412 (- l409 1))) (let ((l413 (ite l411 l412 l409))) (let ((l414 (= l413 0))) (let ((l415 (= |state.cy!1!3| l399))) (let ((l416 (- l413 1))) (let ((l417 (ite l415 l416 l413))) (let ((l418 (= l417 0))) (let ((l419 (= |state.cy!1!2| l399))) (let ((l420 (- l417 1))) (let ((l421 (ite l419 l420 l417))) (let ((l422 (= l421 0))) (let ((l423 (= |state.cy!1!1| l399))) (let ((l424 (- l421 1))) (let ((l425 (ite l423 l424 l421))) (let ((l426 (= l425 0))) (let ((l427 (= |state.cy!1!0| l399))) (let ((l428 (- l425 1))) (let ((l429 (ite l427 l428 l425))) (let ((l430 (= l429 0))) (let ((l431 (or l402 l406 l410 l414 l418 l422 l426 l430))) (let ((l432 (ite l431 l399 0))) (let ((l433 (= |next.v!1| l432))) (let ((l434 (or l16 l433))) (let ((l435 (= |state.cy!2!6| |state.cy!2!7|))) (let ((l436 (ite l435 2 0))) (let ((l437 (= l436 0))) (let ((l438 (= |state.cy!2!5| |state.cy!2!7|))) (let ((l439 (+ l436 1))) (let ((l440 (- l436 1))) (let ((l441 (ite l438 l439 l440))) (let ((l442 (ite l437 1 l441))) (let ((l443 (= l442 0))) (let ((l444 (ite l437 |state.cy!2!5| |state.cy!2!7|))) (let ((l445 (= |state.cy!2!4| l444))) (let ((l446 (+ l442 1))) (let ((l447 (- l442 1))) (let ((l448 (ite l445 l446 l447))) (let ((l449 (ite l443 1 l448))) (let ((l450 (= l449 0))) (let ((l451 (ite l443 |state.cy!2!4| l444))) (let ((l452 (= |state.cy!2!3| l451))) (let ((l453 (+ l449 1))) (let ((l454 (- l449 1))) (let ((l455 (ite l452 l453 l454))) (let ((l456 (ite l450 1 l455))) (let ((l457 (= l456 0))) (let ((l458 (ite l450 |state.cy!2!3| l451))) (let ((l459 (= |state.cy!2!2| l458))) (let ((l460 (+ l456 1))) (let ((l461 (- l456 1))) (let ((l462 (ite l459 l460 l461))) (let ((l463 (ite l457 1 l462))) (let ((l464 (= l463 0))) (let ((l465 (ite l457 |state.cy!2!2| l458))) (let ((l466 (= |state.cy!2!1| l465))) (let ((l467 (+ l463 1))) (let ((l468 (- l463 1))) (let ((l469 (ite l466 l467 l468))) (let ((l470 (ite l464 1 l469))) (let ((l471 (= l470 0))) (let ((l472 (ite l464 |state.cy!2!1| l465))) (let ((l473 (ite l471 |state.cy!2!0| l472))) (let ((l474 (= |state.cy!2!7| l473))) (let ((l475 (ite l474 4 5))) (let ((l476 (= l475 0))) (let ((l477 (= |state.cy!2!6| l473))) (let ((l478 (- l475 1))) (let ((l479 (ite l477 l478 l475))) (let ((l480 (= l479 0))) (let ((l481 (= |state.cy!2!5| l473))) (let ((l482 (- l479 1))) (let ((l483 (ite l481 l482 l479))) (let ((l484 (= l483 0))) (let ((l485 (= |state.cy!2!4| l473))) (let ((l486 (- l483 1))) (let ((l487 (ite l485 l486 l483))) (let ((l488 (= l487 0))) (let ((l489 (= |state.cy!2!3| l473))) (let ((l490 (- l487 1))) (let ((l491 (ite l489 l490 l487))) (let ((l492 (= l491 0))) (let ((l493 (= |state.cy!2!2| l473))) (let ((l494 (- l491 1))) (let ((l495 (ite l493 l494 l491))) (let ((l496 (= l495 0))) (let ((l497 (= |state.cy!2!1| l473))) (let ((l498 (- l495 1))) (let ((l499 (ite l497 l498 l495))) (let ((l500 (= l499 0))) (let ((l501 (= |state.cy!2!0| l473))) (let ((l502 (- l499 1))) (let ((l503 (ite l501 l502 l499))) (let ((l504 (= l503 0))) (let ((l505 (or l476 l480 l484 l488 l492 l496 l500 l504))) (let ((l506 (ite l505 l473 0))) (let ((l507 (= |next.v!2| l506))) (let ((l508 (or l29 l507))) (let ((l509 (= |state.cy!3!6| |state.cy!3!7|))) (let ((l510 (ite l509 2 0))) (let ((l511 (= l510 0))) (let ((l512 (= |state.cy!3!5| |state.cy!3!7|))) (let ((l513 (+ l510 1))) (let ((l514 (- l510 1))) (let ((l515 (ite l512 l513 l514))) (let ((l516 (ite l511 1 l515))) (let ((l517 (= l516 0))) (let ((l518 (ite l511 |state.cy!3!5| |state.cy!3!7|))) (let ((l519 (= |state.cy!3!4| l518))) (let ((l520 (+ l516 1))) (let ((l521 (- l516 1))) (let ((l522 (ite l519 l520 l521))) (let ((l523 (ite l517 1 l522))) (let ((l524 (= l523 0))) (let ((l525 (ite l517 |state.cy!3!4| l518))) (let ((l526 (= |state.cy!3!3| l525))) (let ((l527 (+ l523 1))) (let ((l528 (- l523 1))) (let ((l529 (ite l526 l527 l528))) (let ((l530 (ite l524 1 l529))) (let ((l531 (= l530 0))) (let ((l532 (ite l524 |state.cy!3!3| l525))) (let ((l533 (= |state.cy!3!2| l532))) (let ((l534 (+ l530 1))) (let ((l535 (- l530 1))) (let ((l536 (ite l533 l534 l535))) (let ((l537 (ite l531 1 l536))) (let ((l538 (= l537 0))) (let ((l539 (ite l531 |state.cy!3!2| l532))) (let ((l540 (= |state.cy!3!1| l539))) (let ((l541 (+ l537 1))) (let ((l542 (- l537 1))) (let ((l543 (ite l540 l541 l542))) (let ((l544 (ite l538 1 l543))) (let ((l545 (= l544 0))) (let ((l546 (ite l538 |state.cy!3!1| l539))) (let ((l547 (ite l545 |state.cy!3!0| l546))) (let ((l548 (= |state.cy!3!7| l547))) (let ((l549 (ite l548 4 5))) (let ((l550 (= l549 0))) (let ((l551 (= |state.cy!3!6| l547))) (let ((l552 (- l549 1))) (let ((l553 (ite l551 l552 l549))) (let ((l554 (= l553 0))) (let ((l555 (= |state.cy!3!5| l547))) (let ((l556 (- l553 1))) (let ((l557 (ite l555 l556 l553))) (let ((l558 (= l557 0))) (let ((l559 (= |state.cy!3!4| l547))) (let ((l560 (- l557 1))) (let ((l561 (ite l559 l560 l557))) (let ((l562 (= l561 0))) (let ((l563 (= |state.cy!3!3| l547))) (let ((l564 (- l561 1))) (let ((l565 (ite l563 l564 l561))) (let ((l566 (= l565 0))) (let ((l567 (= |state.cy!3!2| l547))) (let ((l568 (- l565 1))) (let ((l569 (ite l567 l568 l565))) (let ((l570 (= l569 0))) (let ((l571 (= |state.cy!3!1| l547))) (let ((l572 (- l569 1))) (let ((l573 (ite l571 l572 l569))) (let ((l574 (= l573 0))) (let ((l575 (= |state.cy!3!0| l547))) (let ((l576 (- l573 1))) (let ((l577 (ite l575 l576 l573))) (let ((l578 (= l577 0))) (let ((l579 (or l550 l554 l558 l562 l566 l570 l574 l578))) (let ((l580 (ite l579 l547 0))) (let ((l581 (= |next.v!3| l580))) (let ((l582 (or l42 l581))) (let ((l583 (and l360 l434 l508 l582))) (let ((l584 (= |next.round| 3))) (let ((l585 (and l286 l583 l584 l284 l129 l134 l143))) (let ((l586 (= |state.round| 3))) (let ((l587 (= |next.round| |state.round|))) (let ((l588 (and l586 l284 l129 l134 l143 l587 l148))) (let ((l589 (or l149 l285 l585 l588))) (let ((l590 (and l0 l1 l589))) l590)))))))))))))))))))))))))))))))))))))))))))))))))))))))))))))))))))))))))))))))))))))))))))))))))))))))))))))))))))))))))))))))))))))))))))))))))))))))))))))))))))))))))))))))))))))))))))))))))))))))))))))))))))))))))))))))))))))))))))))))))))))))))))))))))))))))))))))))))))))))))))))))))))))))))))))))))))))))))))))))))))))))))))))))))))))))))))))))))))))))))))))))))))))))))))))))))))))))))))))))))))))))))))))))))))))))))))))))))))))))))))))))))))))))))))))))))))))))))))))))))))))))))))))))))))))))))))))))))))))))))))))))))))))))))))))))))))))))))))))))))))))))))))))))))))))))))))))))
        )
        (invariant next.cx!0!0 next.cx!0!1 next.cx!0!2 next.cx!0!3 next.cx!0!4 next.cx!0!5 next.cx!0!6 next.cx!0!7 next.cx!1!0 next.cx!1!1 next.cx!1!2 next.cx!1!3 next.cx!1!4 next.cx!1!5 next.cx!1!6 next.cx!1!7 next.cx!2!0 next.cx!2!1 next.cx!2!2 next.cx!2!3 next.cx!2!4 next.cx!2!5 next.cx!2!6 next.cx!2!7 next.cx!3!0 next.cx!3!1 next.cx!3!2 next.cx!3!3 next.cx!3!4 next.cx!3!5 next.cx!3!6 next.cx!3!7 next.cy!0!0 next.cy!0!1 next.cy!0!2 next.cy!0!3 next.cy!0!4 next.cy!0!5 next.cy!0!6 next.cy!0!7 next.cy!1!0 next.cy!1!1 next.cy!1!2 next.cy!1!3 next.cy!1!4 next.cy!1!5 next.cy!1!6 next.cy!1!7 next.cy!2!0 next.cy!2!1 next.cy!2!2 next.cy!2!3 next.cy!2!4 next.cy!2!5 next.cy!2!6 next.cy!2!7 next.cy!3!0 next.cy!3!1 next.cy!3!2 next.cy!3!3 next.cy!3!4 next.cy!3!5 next.cy!3!6 next.cy!3!7 next.good_p!0 next.good_p!1 next.good_p!2 next.good_p!3 next.good_r!0 next.good_r!1 next.good_r!2 next.good_r!3 next.good_r!4 next.good_r!5 next.good_r!6 next.good_r!7 next.v!0 next.v!1 next.v!2 next.v!3 next.round next.source next.val)
    )
  )
)

;; Property
(assert
  (forall ((state.cx!0!0 Real) (state.cx!0!1 Real) (state.cx!0!2 Real) (state.cx!0!3 Real) (state.cx!0!4 Real) (state.cx!0!5 Real) (state.cx!0!6 Real) (state.cx!0!7 Real) (state.cx!1!0 Real) (state.cx!1!1 Real) (state.cx!1!2 Real) (state.cx!1!3 Real) (state.cx!1!4 Real) (state.cx!1!5 Real) (state.cx!1!6 Real) (state.cx!1!7 Real) (state.cx!2!0 Real) (state.cx!2!1 Real) (state.cx!2!2 Real) (state.cx!2!3 Real) (state.cx!2!4 Real) (state.cx!2!5 Real) (state.cx!2!6 Real) (state.cx!2!7 Real) (state.cx!3!0 Real) (state.cx!3!1 Real) (state.cx!3!2 Real) (state.cx!3!3 Real) (state.cx!3!4 Real) (state.cx!3!5 Real) (state.cx!3!6 Real) (state.cx!3!7 Real) (state.cy!0!0 Real) (state.cy!0!1 Real) (state.cy!0!2 Real) (state.cy!0!3 Real) (state.cy!0!4 Real) (state.cy!0!5 Real) (state.cy!0!6 Real) (state.cy!0!7 Real) (state.cy!1!0 Real) (state.cy!1!1 Real) (state.cy!1!2 Real) (state.cy!1!3 Real) (state.cy!1!4 Real) (state.cy!1!5 Real) (state.cy!1!6 Real) (state.cy!1!7 Real) (state.cy!2!0 Real) (state.cy!2!1 Real) (state.cy!2!2 Real) (state.cy!2!3 Real) (state.cy!2!4 Real) (state.cy!2!5 Real) (state.cy!2!6 Real) (state.cy!2!7 Real) (state.cy!3!0 Real) (state.cy!3!1 Real) (state.cy!3!2 Real) (state.cy!3!3 Real) (state.cy!3!4 Real) (state.cy!3!5 Real) (state.cy!3!6 Real) (state.cy!3!7 Real) (state.good_p!0 Bool) (state.good_p!1 Bool) (state.good_p!2 Bool) (state.good_p!3 Bool) (state.good_r!0 Bool) (state.good_r!1 Bool) (state.good_r!2 Bool) (state.good_r!3 Bool) (state.good_r!4 Bool) (state.good_r!5 Bool) (state.good_r!6 Bool) (state.good_r!7 Bool) (state.v!0 Real) (state.v!1 Real) (state.v!2 Real) (state.v!3 Real) (state.round Real) (state.source Real) (state.val Real))
    (=> (invariant state.cx!0!0 state.cx!0!1 state.cx!0!2 state.cx!0!3 state.cx!0!4 state.cx!0!5 state.cx!0!6 state.cx!0!7 state.cx!1!0 state.cx!1!1 state.cx!1!2 state.cx!1!3 state.cx!1!4 state.cx!1!5 state.cx!1!6 state.cx!1!7 state.cx!2!0 state.cx!2!1 state.cx!2!2 state.cx!2!3 state.cx!2!4 state.cx!2!5 state.cx!2!6 state.cx!2!7 state.cx!3!0 state.cx!3!1 state.cx!3!2 state.cx!3!3 state.cx!3!4 state.cx!3!5 state.cx!3!6 state.cx!3!7 state.cy!0!0 state.cy!0!1 state.cy!0!2 state.cy!0!3 state.cy!0!4 state.cy!0!5 state.cy!0!6 state.cy!0!7 state.cy!1!0 state.cy!1!1 state.cy!1!2 state.cy!1!3 state.cy!1!4 state.cy!1!5 state.cy!1!6 state.cy!1!7 state.cy!2!0 state.cy!2!1 state.cy!2!2 state.cy!2!3 state.cy!2!4 state.cy!2!5 state.cy!2!6 state.cy!2!7 state.cy!3!0 state.cy!3!1 state.cy!3!2 state.cy!3!3 state.cy!3!4 state.cy!3!5 state.cy!3!6 state.cy!3!7 state.good_p!0 state.good_p!1 state.good_p!2 state.good_p!3 state.good_r!0 state.good_r!1 state.good_r!2 state.good_r!3 state.good_r!4 state.good_r!5 state.good_r!6 state.good_r!7 state.v!0 state.v!1 state.v!2 state.v!3 state.round state.source state.val)
        (let ((l0 (< |state.round| 3))) (let ((l1 (not |state.good_p!0|))) (let ((l2 (not |state.good_p!1|))) (let ((l3 (= |state.v!0| |state.v!1|))) (let ((l4 (or l2 l3))) (let ((l5 (not |state.good_p!2|))) (let ((l6 (= |state.v!0| |state.v!2|))) (let ((l7 (or l5 l6))) (let ((l8 (not |state.good_p!3|))) (let ((l9 (= |state.v!0| |state.v!3|))) (let ((l10 (or l8 l9))) (let ((l11 (and l4 l7 l10))) (let ((l12 (or l1 l11))) (let ((l13 (= |state.v!1| |state.v!0|))) (let ((l14 (or l1 l13))) (let ((l15 (= |state.v!1| |state.v!2|))) (let ((l16 (or l5 l15))) (let ((l17 (= |state.v!1| |state.v!3|))) (let ((l18 (or l8 l17))) (let ((l19 (and l14 l16 l18))) (let ((l20 (or l2 l19))) (let ((l21 (= |state.v!2| |state.v!0|))) (let ((l22 (or l1 l21))) (let ((l23 (= |state.v!2| |state.v!1|))) (let ((l24 (or l2 l23))) (let ((l25 (= |state.v!2| |state.v!3|))) (let ((l26 (or l8 l25))) (let ((l27 (and l22 l24 l26))) (let ((l28 (or l5 l27))) (let ((l29 (= |state.v!3| |state.v!0|))) (let ((l30 (or l1 l29))) (let ((l31 (= |state.v!3| |state.v!1|))) (let ((l32 (or l2 l31))) (let ((l33 (= |state.v!3| |state.v!2|))) (let ((l34 (or l5 l33))) (let ((l35 (and l30 l32 l34))) (let ((l36 (or l8 l35))) (let ((l37 (and l12 l20 l28 l36))) (let ((l38 (or l0 l37))) l38)))))))))))))))))))))))))))))))))))))))
    )
  )
)

;; Check the property
(check-sat)
